Problem:    
Rows:       260
Columns:    89 (72 integer, 72 binary)
Non-zeros:  974
Status:     INTEGER OPTIMAL
Objective:  value = 47.588301 (MINimum)

   No.   Row name        Activity     Lower bound   Upper bound
------ ------------    ------------- ------------- -------------
     1 r.5                   47.5883             0               
     2 r.6                   23.8311      -990.665               
     3 r.7                   1047.59             0               
     4 r.8                  -981.954       -992.18               
     5 r.9                   1047.59             0               
     6 r.10                 -979.109      -990.762               
     7 r.11                  47.5883             0               
     8 r.12                  20.8908      -992.023               
     9 r.13                  1047.59             0               
    10 r.14                 -991.288      -999.235               
    11 r.15                  47.5883             0               
    12 r.16                  23.7352      -998.573               
    13 r.17                  1047.59             0               
    14 r.18                 -992.053      -998.542               
    15 r.19                  47.5883             0               
    16 r.20                  20.8908       -997.93               
    17 r.21                  47.5883             0               
    18 r.22                  42.2118      -995.546               
    19 r.23                  1047.59             0               
    20 r.24                 -957.788      -996.018               
    21 r.25                  1047.59             0               
    22 r.26                 -999.392      -999.392               
    23 r.27                  47.5883             0               
    24 r.28                 -998.646      -998.646               
    25 r.29                  1047.59             0               
    26 r.30                 -952.412      -973.303               
    27 r.31                  47.5883             0               
    28 r.32                  47.5883      -938.776               
    29 r.33                  47.5883             0               
    30 r.34                  47.5883      -989.738               
    31 r.35                  1047.59             0               
    32 r.36                 -952.412      -994.623               
    33 r.37                        1             1             = 
    34 r.38                        1             1             = 
    35 r.39                        1             1             = 
    36 r.40                        1             1             = 
    37 r.41                        1             1             = 
    38 r.42                        1             1             = 
    39 r.43                        1             1             = 
    40 r.44                        1             1             = 
    41 r.45                     1001             2               
    42 r.46                    -1001         -1001               
    43 r.47                     2000      -990.762               
    44 r.48                     1001             2               
    45 r.49                    -1001         -1001               
    46 r.50                     2000      -992.023               
    47 r.51                     1001             2               
    48 r.52                    -1001         -1001               
    49 r.53                  1987.82      -999.235               
    50 r.54                     1001             2               
    51 r.55                    -1001         -1001               
    52 r.56                  2002.84      -998.573               
    53 r.57                     1001             2               
    54 r.58                    -1001         -1001               
    55 r.59                  1987.06      -998.542               
    56 r.60                     1001             2               
    57 r.61                    -1001         -1001               
    58 r.62                     2000       -997.93               
    59 r.63                     1000             2               
    60 r.64                    -1000         -1001               
    61 r.65                  2021.32      -995.546               
    62 r.66                        2             2               
    63 r.67                       -2         -1001               
    64 r.68                 -978.679      -996.018               
    65 r.69                  17.3428      -990.665               
    66 r.70                 -988.442       -992.18               
    67 r.71                  1028.17      -990.665               
    68 r.72                  22.3817       -992.18               
    69 r.73                 -973.303      -973.303               
    70 r.74                  26.6975      -938.776               
    71 r.75                 -973.303      -973.303               
    72 r.76                  26.6975      -938.776               
    73 r.77                  26.6975      -989.738               
    74 r.78                 -973.303      -994.623               
    75 r.79                  26.6975      -989.738               
    76 r.80                 -973.303      -994.623               
    77 r.81                     1001             2               
    78 r.82                    -1001         -1001               
    79 r.83                  2002.94       9.33491               
    80 r.84                     1001             2               
    81 r.85                    -1001         -1001               
    82 r.86                  1997.16       7.82031               
    83 r.87                        2             2               
    84 r.88                       -2         -1001               
    85 r.89                 -12.1787      -999.235               
    86 r.90                     1000             2               
    87 r.91                    -1000         -1001               
    88 r.92                  2002.84      -998.573               
    89 r.93                        2             2               
    90 r.94                       -2         -1001               
    91 r.95                 -12.9442      -998.542               
    92 r.96                     1000             2               
    93 r.97                    -1000         -1001               
    94 r.98                     2000       -997.93               
    95 r.99                     1001             2               
    96 r.100                   -1001         -1001               
    97 r.101                 2021.32      -995.546               
    98 r.102                    1001             2               
    99 r.103                   -1001         -1001               
   100 r.104                 2021.32      -996.018               
   101 r.105                -985.597      -990.762               
   102 r.106                 14.4026      -992.023               
   103 r.107                 25.2261      -990.762               
   104 r.108                 1025.23      -992.023               
   105 r.109                -973.303      -973.303               
   106 r.110                 26.6975      -938.776               
   107 r.111                -973.303      -973.303               
   108 r.112                 26.6975      -938.776               
   109 r.113                    1001             2               
   110 r.114                   -1001         -1001               
   111 r.115                  2026.7      -989.738               
   112 r.116                    1001             2               
   113 r.117                   -1001         -1001               
   114 r.118                  2026.7      -994.623               
   115 r.119                    1001             2               
   116 r.120                   -1001         -1001               
   117 r.121                 2012.18       9.33491               
   118 r.122                    1001             2               
   119 r.123                   -1001         -1001               
   120 r.124                 1997.16       7.82031               
   121 r.125                       2             2               
   122 r.126                      -2         -1001               
   123 r.127                 9.23844       9.23844               
   124 r.128                    1000             2               
   125 r.129                   -1000         -1001               
   126 r.130                    2000       7.97732               
   127 r.131                       2             2               
   128 r.132                      -2         -1001               
   129 r.133                -3.70577      -998.542               
   130 r.134                    1000             2               
   131 r.135                   -1000         -1001               
   132 r.136                    2000       -997.93               
   133 r.137                    1001             2               
   134 r.138                   -1001         -1001               
   135 r.139                 2030.56      -995.546               
   136 r.140                    1001             2               
   137 r.141                   -1001         -1001               
   138 r.142                 2021.32      -996.018               
   139 r.143                -997.776      -999.235               
   140 r.144                  17.247      -998.573               
   141 r.145                 13.0474      -999.235               
   142 r.146                 1028.07      -998.573               
   143 r.147                -964.064      -973.303               
   144 r.148                 35.9359      -938.776               
   145 r.149                -973.303      -973.303               
   146 r.150                 26.6975      -938.776               
   147 r.151                 35.9359      -989.738               
   148 r.152                -964.064      -994.623               
   149 r.153                 26.6975      -989.738               
   150 r.154                -973.303      -994.623               
   151 r.155                    1001             2               
   152 r.156                   -1001         -1001               
   153 r.157                 2015.88       9.33491               
   154 r.158                    1001             2               
   155 r.159                   -1001         -1001               
   156 r.160                 1997.16       7.82031               
   157 r.161                       2             2               
   158 r.162                      -2         -1001               
   159 r.163                 12.9442       9.23844               
   160 r.164                    1000             2               
   161 r.165                   -1000         -1001               
   162 r.166                    2000       7.97732               
   163 r.167                       2             2               
   164 r.168                      -2         -1001               
   165 r.169                  0.7655        0.7655               
   166 r.170                    1000             2               
   167 r.171                   -1000         -1001               
   168 r.172                 2002.84       1.42734               
   169 r.173                    1001             2               
   170 r.174                   -1001         -1001               
   171 r.175                 2034.27      -995.546               
   172 r.176                    1001             2               
   173 r.177                   -1001         -1001               
   174 r.178                 2021.32      -996.018               
   175 r.179                -998.542      -998.542               
   176 r.180                 14.4026       -997.93               
   177 r.181                 12.2819      -998.542               
   178 r.182                 1025.23       -997.93               
   179 r.183                -960.358      -973.303               
   180 r.184                 39.6417      -938.776               
   181 r.185                -973.303      -973.303               
   182 r.186                 26.6975      -938.776               
   183 r.187                    1001             2               
   184 r.188                   -1001         -1001               
   185 r.189                 2039.64      -989.738               
   186 r.190                    1001             2               
   187 r.191                   -1001         -1001               
   188 r.192                  2026.7      -994.623               
   189 r.193                    1000             2               
   190 r.194                   -1000         -1001               
   191 r.195                 1981.62       9.33491               
   192 r.196                       2             2               
   193 r.197                      -2         -1001               
   194 r.198                 975.835       7.82031               
   195 r.199                    1001             2               
   196 r.200                   -1001         -1001               
   197 r.201                 1978.68       9.23844               
   198 r.202                    1001             2               
   199 r.203                   -1001         -1001               
   200 r.204                 1978.68       7.97732               
   201 r.205                    1001             2               
   202 r.206                   -1001         -1001               
   203 r.207                  1966.5        0.7655               
   204 r.208                    1001             2               
   205 r.209                   -1001         -1001               
   206 r.210                 1981.52       1.42734               
   207 r.211                    1001             2               
   208 r.212                   -1001         -1001               
   209 r.213                 1965.73       1.45834               
   210 r.214                    1001             2               
   211 r.215                   -1001         -1001               
   212 r.216                 1978.68       2.07033               
   213 r.217                 35.7235      -995.546               
   214 r.218                -964.276      -996.018               
   215 r.219                 1046.55      -995.546               
   216 r.220                  46.547      -996.018               
   217 r.221                    1001             2               
   218 r.222                   -1001         -1001               
   219 r.223                 2005.38      -973.303               
   220 r.224                    1001             2               
   221 r.225                   -1001         -1001               
   222 r.226                 2005.38      -938.776               
   223 r.227                 5.37654      -989.738               
   224 r.228                -994.623      -994.623               
   225 r.229                 5.37654      -989.738               
   226 r.230                -994.623      -994.623               
   227 r.231                  -958.9      -973.303               
   228 r.232                 41.1001      -938.776               
   229 r.233                 51.9236      -973.303               
   230 r.234                 1051.92      -938.776               
   231 r.235                    1001             2               
   232 r.236                   -1001         -1001               
   233 r.237                 1994.62       4.45413               
   234 r.238                    1001             2               
   235 r.239                   -1001         -1001               
   236 r.240                 1994.62       3.98208               
   237 r.241                    1001             2               
   238 r.242                   -1001         -1001               
   239 r.243                    2000      -989.738               
   240 r.244                    1001             2               
   241 r.245                   -1001         -1001               
   242 r.246                    2000      -994.623               
   243 r.247                    1001             2               
   244 r.248                   -1001         -1001               
   245 r.249                  1973.3       9.23844               
   246 r.250                    1001             2               
   247 r.251                   -1001         -1001               
   248 r.252                  1973.3       7.97732               
   249 r.253                    1001             2               
   250 r.254                   -1001         -1001               
   251 r.255                 1960.36       1.45834               
   252 r.256                    1001             2               
   253 r.257                   -1001         -1001               
   254 r.258                  1973.3       2.07033               
   255 r.259                    1001             2               
   256 r.260                   -1001         -1001               
   257 r.261                    2000       26.6975               
   258 r.262                    1001             2               
   259 r.263                   -1001         -1001               
   260 r.264                    2000       61.2243               

   No. Column name       Activity     Lower bound   Upper bound
------ ------------    ------------- ------------- -------------
     1 tt                    47.5883             0               
     2 s_1_1        *              0             0             1 
     3 t_1_1                 26.6975             0               
     4 s_1_8        *              0             0             1 
     5 s_1_7        *              1             0             1 
     6 s_2_1        *              1             0             1 
     7 t_2_1                 26.6975             0               
     8 s_2_8        *              1             0             1 
     9 s_2_7        *              0             0             1 
    10 s_1_2        *              1             0             1 
    11 t_1_2                 26.6975             0               
    12 s_2_2        *              0             0             1 
    13 t_2_2                 26.6975             0               
    14 s_1_3        *              1             0             1 
    15 t_1_3                 35.9359             0               
    16 s_2_3        *              0             0             1 
    17 t_2_3                 26.6975             0               
    18 s_1_4        *              1             0             1 
    19 t_1_4                 39.6417             0               
    20 s_2_4        *              0             0             1 
    21 t_2_4                 26.6975             0               
    22 s_1_5        *              0             0             1 
    23 t_1_5                 5.37654             0               
    24 s_2_5        *              1             0             1 
    25 t_2_5                 5.37654             0               
    26 s_1_6        *              1             0             1 
    27 t_1_6                 41.1001             0               
    28 s_2_6        *              0             0             1 
    29 t_2_6                 1051.92             0               
    30 t_1_7                       0             0               
    31 t_2_7                       0             0               
    32 t_1_8                       0             0               
    33 t_2_8                       0             0               
    34 r_1_1_2      *              1             0             1 
    35 u_1_1_2      *              0             0             1 
    36 r_2_1_2      *              1             0             1 
    37 u_2_1_2      *              0             0             1 
    38 r_1_1_3      *              1             0             1 
    39 u_1_1_3      *              0             0             1 
    40 r_2_1_3      *              1             0             1 
    41 u_2_1_3      *              0             0             1 
    42 r_1_1_4      *              1             0             1 
    43 u_1_1_4      *              0             0             1 
    44 r_2_1_4      *              1             0             1 
    45 u_2_1_4      *              0             0             1 
    46 r_1_1_5      *              1             0             1 
    47 u_1_1_5      *              0             0             1 
    48 r_2_1_5      *              0             0             1 
    49 u_2_1_5      *              1             0             1 
    50 r_1_2_3      *              0             0             1 
    51 u_1_2_3      *              0             0             1 
    52 r_2_2_3      *              1             0             1 
    53 u_2_2_3      *              0             0             1 
    54 r_1_2_4      *              0             0             1 
    55 u_1_2_4      *              0             0             1 
    56 r_2_2_4      *              1             0             1 
    57 u_2_2_4      *              0             0             1 
    58 r_1_2_5      *              1             0             1 
    59 u_1_2_5      *              0             0             1 
    60 r_2_2_5      *              1             0             1 
    61 u_2_2_5      *              0             0             1 
    62 r_1_2_8      *              1             0             1 
    63 u_1_2_8      *              0             0             1 
    64 r_2_2_8      *              1             0             1 
    65 u_2_2_8      *              0             0             1 
    66 r_1_3_4      *              0             0             1 
    67 u_1_3_4      *              0             0             1 
    68 r_2_3_4      *              1             0             1 
    69 u_2_3_4      *              0             0             1 
    70 r_1_3_5      *              1             0             1 
    71 u_1_3_5      *              0             0             1 
    72 r_2_3_5      *              1             0             1 
    73 u_2_3_5      *              0             0             1 
    74 r_1_4_5      *              1             0             1 
    75 u_1_4_5      *              0             0             1 
    76 r_2_4_5      *              1             0             1 
    77 u_2_4_5      *              0             0             1 
    78 r_1_4_8      *              1             0             1 
    79 u_1_4_8      *              0             0             1 
    80 r_2_4_8      *              1             0             1 
    81 u_2_4_8      *              0             0             1 
    82 r_1_5_7      *              1             0             1 
    83 u_1_5_7      *              0             0             1 
    84 r_2_5_7      *              1             0             1 
    85 u_2_5_7      *              0             0             1 
    86 r_1_7_8      *              1             0             1 
    87 u_1_7_8      *              0             0             1 
    88 r_2_7_8      *              1             0             1 
    89 u_2_7_8      *              0             0             1 

Integer feasibility conditions:

KKT.PE: max.abs.err = 2.27e-13 on row 6
        max.rel.err = 1.10e-16 on row 6
        High quality

KKT.PB: max.abs.err = 4.11e-15 on row 165
        max.rel.err = 2.33e-15 on row 165
        High quality

End of output
